global _chemical_name MyName
1.0
       12.676         0.0000000000         0.0000000000
        0.0000000000        12.676         0.0000000000
        0.0000000000         0.0000000000         6.338
   Mo   V   Ta    W   Zr   Ti
   42   4    6    8    2    2
Direct
     0.000000000         0.000000000         0.000000000
     0.875000000         0.875000000         0.750000000
     0.000000000         0.750000000         0.000000000
     0.875000000         0.625000000         0.750000000
     0.000000000         0.500000000         0.000000000
     0.875000000         0.375000000         0.750000000
     0.000000000         0.250000000         0.000000000
     0.750000000         0.000000000         0.000000000
     0.625000000         0.875000000         0.750000000
     0.750000000         0.500000000         0.000000000
     0.625000000         0.375000000         0.750000000
     0.750000000         0.250000000         0.000000000
     0.500000000         0.000000000         0.000000000
     0.375000000         0.875000000         0.750000000
     0.500000000         0.750000000         0.000000000
     0.375000000         0.625000000         0.750000000
     0.500000000         0.500000000         0.000000000
     0.500000000         0.250000000         0.000000000
     0.375000000         0.125000000         0.750000000
     0.250000000         0.000000000         0.000000000
     0.125000000         0.625000000         0.750000000
     0.125000000         0.375000000         0.750000000
     0.125000000         0.125000000         0.750000000
     0.000000000         0.000000000         0.500000000
     0.875000000         0.875000000         0.250000000
     0.000000000         0.750000000         0.500000000
     0.875000000         0.375000000         0.250000000
     0.875000000         0.125000000         0.250000000
     0.625000000         0.875000000         0.250000000
     0.750000000         0.750000000         0.500000000
     0.625000000         0.625000000         0.250000000
     0.750000000         0.500000000         0.500000000
     0.750000000         0.250000000         0.500000000
     0.625000000         0.125000000         0.250000000
     0.500000000         0.000000000         0.500000000
     0.375000000         0.875000000         0.250000000
     0.375000000         0.625000000         0.250000000
     0.375000000         0.375000000         0.250000000
     0.375000000         0.125000000         0.250000000
     0.250000000         0.000000000         0.500000000
     0.125000000         0.875000000         0.250000000
     0.250000000         0.750000000         0.500000000
     0.125000000         0.625000000         0.250000000
     0.250000000         0.500000000         0.500000000
     0.250000000         0.250000000         0.500000000
     0.125000000         0.125000000         0.250000000
     0.875000000         0.125000000         0.750000000
     0.750000000         0.750000000         0.000000000
     0.625000000         0.625000000         0.750000000
     0.250000000         0.750000000         0.000000000
     0.500000000         0.750000000         0.500000000
     0.125000000         0.375000000         0.250000000
     0.625000000         0.125000000         0.750000000
     0.375000000         0.375000000         0.750000000
     0.125000000         0.875000000         0.750000000
     0.250000000         0.500000000         0.000000000
     0.875000000         0.625000000         0.250000000
     0.000000000         0.250000000         0.500000000
     0.750000000         0.000000000         0.500000000
     0.500000000         0.250000000         0.500000000
     0.250000000         0.250000000         0.000000000
     0.500000000         0.500000000         0.500000000
     0.000000000         0.500000000         0.500000000
     0.625000000         0.375000000         0.250000000
